#=======================================================
# FHI-aims file: /home/gz_fan/Documents/ML/train/battery/CCS/CCS/test/LiP/aims_geo/geometry.in.10
# Created using the Atomic Simulation Environment (ASE)
# Thu Jul 21 15:33:03 2022
#=======================================================
lattice_vector 4.6594439760000004 0.0000000000000000 0.0000000000000000 
lattice_vector -2.3297219879999993 4.0351968507263711 0.0000000000000000 
lattice_vector 0.0000000000000000 0.0000000000000000 8.3277898000000015 
atom 0.0000000000000000 0.0000000000000000 6.2458423500000011 Li
atom 0.0000000000000000 0.0000000000000000 2.0819474500000004 Li
atom 2.3297220112972212 1.3450656034581341 0.7005253501862001 Li
atom -0.0000000232972194 2.6901312472682366 4.8644202501862006 Li
atom -0.0000000232972194 2.6901312472682366 7.6272644498137998 Li
atom 2.3297220112972212 1.3450656034581341 3.4633695498138004 Li
atom 2.3297220112972212 1.3450656034581341 6.2458423500000011 P
atom -0.0000000232972194 2.6901312472682366 2.0819474500000004 P
