#=======================================================
# FHI-aims file: /home/gz_fan/Documents/ML/train/battery/CCS/CCS/test/LiP/aims_geo/geometry.in.8
# Created using the Atomic Simulation Environment (ASE)
# Thu Jul 21 15:33:03 2022
#=======================================================
lattice_vector 4.4052924864000005 0.0000000000000000 0.0000000000000000 
lattice_vector -2.2026462431999994 3.8150952043231143 0.0000000000000000 
lattice_vector 0.0000000000000000 0.0000000000000000 7.8735467200000002 
atom 0.0000000000000000 0.0000000000000000 5.9051600400000011 Li
atom 0.0000000000000000 0.0000000000000000 1.9683866800000001 Li
atom 2.2026462652264636 1.2716983887240541 0.6623148765396800 Li
atom -0.0000000220264619 2.5433968155990603 4.5990882365396804 Li
atom -0.0000000220264619 2.5433968155990603 7.2112318434603200 Li
atom 2.2026462652264636 1.2716983887240541 3.2744584834603203 Li
atom 2.2026462652264636 1.2716983887240541 5.9051600400000011 P
atom -0.0000000220264619 2.5433968155990603 1.9683866800000001 P
