#=======================================================
# FHI-aims file: /home/gz_fan/Documents/ML/train/battery/CCS/CCS/test/LiP/aims_geo/geometry.in.1
# Created using the Atomic Simulation Environment (ASE)
# Thu Jul 21 15:33:03 2022
#=======================================================
lattice_vector 3.5157622728000004 0.0000000000000000 0.0000000000000000 
lattice_vector -1.7578811363999995 3.0447394419117164 0.0000000000000000 
lattice_vector 0.0000000000000000 0.0000000000000000 6.2836959400000012 
atom 0.0000000000000000 0.0000000000000000 4.7127719550000009 Li
atom 0.0000000000000000 0.0000000000000000 1.5709239850000003 Li
atom 1.7578811539788124 1.0149131371547739 0.5285782187768601 Li
atom -0.0000000175788110 2.0298263047569423 3.6704261887768608 Li
atom -0.0000000175788110 2.0298263047569423 5.7551177212231401 Li
atom 1.7578811539788124 1.0149131371547739 2.6132697512231404 Li
atom 1.7578811539788124 1.0149131371547739 4.7127719550000009 P
atom -0.0000000175788110 2.0298263047569423 1.5709239850000003 P
