#=======================================================
# FHI-aims file: /home/gz_fan/Documents/ML/train/battery/CCS/CCS/test/LiP/aims_geo/geometry.in.7
# Created using the Atomic Simulation Environment (ASE)
# Thu Jul 21 15:33:03 2022
#=======================================================
lattice_vector 4.2782167416000005 0.0000000000000000 0.0000000000000000 
lattice_vector -2.1391083707999994 3.7050443811214859 0.0000000000000000 
lattice_vector 0.0000000000000000 0.0000000000000000 7.6464251800000005 
atom 0.0000000000000000 0.0000000000000000 5.7348188850000001 Li
atom 0.0000000000000000 0.0000000000000000 1.9116062950000001 Li
atom 2.1391083921910847 1.2350147813570140 0.6432096397164200 Li
atom -0.0000000213910832 2.4700295997644717 4.4664222297164207 Li
atom -0.0000000213910832 2.4700295997644717 7.0032155402835796 Li
atom 2.1391083921910847 1.2350147813570140 3.1800029502835803 Li
atom 2.1391083921910847 1.2350147813570140 5.7348188850000001 P
atom -0.0000000213910832 2.4700295997644717 1.9116062950000001 P
