#=======================================================
# FHI-aims file: /home/gz_fan/Documents/ML/train/battery/CCS/CCS/test/LiP/aims_geo/geometry.in.2
# Created using the Atomic Simulation Environment (ASE)
# Thu Jul 21 15:33:03 2022
#=======================================================
lattice_vector 3.6428380176000008 0.0000000000000000 0.0000000000000000 
lattice_vector -1.8214190087999995 3.1547902651133448 0.0000000000000000 
lattice_vector 0.0000000000000000 0.0000000000000000 6.5108174800000009 
atom 0.0000000000000000 0.0000000000000000 4.8831131100000009 Li
atom 0.0000000000000000 0.0000000000000000 1.6277043700000002 Li
atom 1.8214190270141912 1.0515967445218140 0.5476834556001201 Li
atom -0.0000000182141897 2.1031935205915304 3.8030921956001209 Li
atom -0.0000000182141897 2.1031935205915304 5.9631340243998805 Li
atom 1.8214190270141912 1.0515967445218140 2.7077252843998805 Li
atom 1.8214190270141912 1.0515967445218140 4.8831131100000009 P
atom -0.0000000182141897 2.1031935205915304 1.6277043700000002 P
