#=======================================================
# FHI-aims file: /home/gz_fan/Documents/ML/train/battery/CCS/CCS/test/LiP/aims_geo/geometry.in.6
# Created using the Atomic Simulation Environment (ASE)
# Thu Jul 21 15:33:03 2022
#=======================================================
lattice_vector 4.1511409968000006 0.0000000000000000 0.0000000000000000 
lattice_vector -2.0755704983999994 3.5949935579198580 0.0000000000000000 
lattice_vector 0.0000000000000000 0.0000000000000000 7.4193036400000008 
atom 0.0000000000000000 0.0000000000000000 5.5644777300000010 Li
atom 0.0000000000000000 0.0000000000000000 1.8548259100000002 Li
atom 2.0755705191557063 1.1983311739899740 0.6241044028931600 Li
atom -0.0000000207557045 2.3966623839298835 4.3337562228931610 Li
atom -0.0000000207557045 2.3966623839298835 6.7951992371068402 Li
atom 2.0755705191557063 1.1983311739899740 3.0855474171068407 Li
atom 2.0755705191557063 1.1983311739899740 5.5644777300000010 P
atom -0.0000000207557045 2.3966623839298835 1.8548259100000002 P
