#=======================================================
# FHI-aims file: /home/gz_fan/Documents/ML/train/battery/CCS/CCS/test/LiP/aims_geo/geometry.in.3
# Created using the Atomic Simulation Environment (ASE)
# Thu Jul 21 15:33:03 2022
#=======================================================
lattice_vector 3.7699137624000008 0.0000000000000000 0.0000000000000000 
lattice_vector -1.8849568811999995 3.2648410883149732 0.0000000000000000 
lattice_vector 0.0000000000000000 0.0000000000000000 6.7379390200000016 
atom 0.0000000000000000 0.0000000000000000 5.0534542650000009 Li
atom 0.0000000000000000 0.0000000000000000 1.6844847550000004 Li
atom 1.8849569000495701 1.0882803518888540 0.5667886924233800 Li
atom -0.0000000188495684 2.1765607364261190 3.9357582024233810 Li
atom -0.0000000188495684 2.1765607364261190 6.1711503275766209 Li
atom 1.8849569000495701 1.0882803518888540 2.8021808175766205 Li
atom 1.8849569000495701 1.0882803518888540 5.0534542650000009 P
atom -0.0000000188495684 2.1765607364261190 1.6844847550000004 P
