#=======================================================
# FHI-aims file: /home/gz_fan/Documents/ML/train/battery/CCS/CCS/test/LiP/aims_geo/geometry.in.4
# Created using the Atomic Simulation Environment (ASE)
# Thu Jul 21 15:33:03 2022
#=======================================================
lattice_vector 3.8969895072000003 0.0000000000000000 0.0000000000000000 
lattice_vector -1.9484947535999995 3.3748919115166012 0.0000000000000000 
lattice_vector 0.0000000000000000 0.0000000000000000 6.9650605600000004 
atom 0.0000000000000000 0.0000000000000000 5.2237954200000010 Li
atom 0.0000000000000000 0.0000000000000000 1.7412651400000001 Li
atom 1.9484947730849485 1.1249639592558940 0.5858939292466401 Li
atom -0.0000000194849471 2.2499279522607072 4.0684242092466407 Li
atom -0.0000000194849471 2.2499279522607072 6.3791666307533594 Li
atom 1.9484947730849485 1.1249639592558940 2.8966363507533606 Li
atom 1.9484947730849485 1.1249639592558940 5.2237954200000010 P
atom -0.0000000194849471 2.2499279522607072 1.7412651400000001 P
