#=======================================================
# FHI-aims file: /home/gz_fan/Documents/ML/train/battery/CCS/CCS/test/LiP/aims_geo/geometry.in.0
# Created using the Atomic Simulation Environment (ASE)
# Thu Jul 21 15:33:03 2022
#=======================================================
lattice_vector 3.3886865280000005 0.0000000000000000 0.0000000000000000 
lattice_vector -1.6943432639999996 2.9346886187100880 0.0000000000000000 
lattice_vector 0.0000000000000000 0.0000000000000000 6.0565744000000006 
atom 0.0000000000000000 0.0000000000000000 4.5424308000000009 Li
atom 0.0000000000000000 0.0000000000000000 1.5141436000000001 Li
atom 1.6943432809434336 0.9782295297877339 0.5094729819536000 Li
atom -0.0000000169434323 1.9564590889223539 3.5377601819536006 Li
atom -0.0000000169434323 1.9564590889223539 5.5471014180463998 Li
atom 1.6943432809434336 0.9782295297877339 2.5188142180464004 Li
atom 1.6943432809434336 0.9782295297877339 4.5424308000000009 P
atom -0.0000000169434323 1.9564590889223539 1.5141436000000001 P
