#=======================================================
# FHI-aims file: /home/gz_fan/Documents/ML/train/battery/CCS/CCS/test/LiP/aims_geo/geometry.in.5
# Created using the Atomic Simulation Environment (ASE)
# Thu Jul 21 15:33:03 2022
#=======================================================
lattice_vector 4.0240652520000006 0.0000000000000000 0.0000000000000000 
lattice_vector -2.0120326259999994 3.4849427347182296 0.0000000000000000 
lattice_vector 0.0000000000000000 0.0000000000000000 7.1921821000000010 
atom 0.0000000000000000 0.0000000000000000 5.3941365750000010 Li
atom 0.0000000000000000 0.0000000000000000 1.7980455250000003 Li
atom 2.0120326461203275 1.1616475666229340 0.6049991660699000 Li
atom -0.0000000201203258 2.3232951680952953 4.2010902160699004 Li
atom -0.0000000201203258 2.3232951680952953 6.5871829339300998 Li
atom 2.0120326461203275 1.1616475666229340 2.9910918839301006 Li
atom 2.0120326461203275 1.1616475666229340 5.3941365750000010 P
atom -0.0000000201203258 2.3232951680952953 1.7980455250000003 P
