#=======================================================
# FHI-aims file: /home/gz_fan/Documents/ML/train/battery/CCS/CCS/test/LiP/aims_geo/geometry.in.9
# Created using the Atomic Simulation Environment (ASE)
# Thu Jul 21 15:33:03 2022
#=======================================================
lattice_vector 4.5323682312000004 0.0000000000000000 0.0000000000000000 
lattice_vector -2.2661841155999993 3.9251460275247427 0.0000000000000000 
lattice_vector 0.0000000000000000 0.0000000000000000 8.1006682600000008 
atom 0.0000000000000000 0.0000000000000000 6.0755011950000011 Li
atom 0.0000000000000000 0.0000000000000000 2.0251670650000002 Li
atom 2.2661841382618424 1.3083819960910941 0.6814201133629401 Li
atom -0.0000000226618406 2.6167640314336484 4.7317542433629409 Li
atom -0.0000000226618406 2.6167640314336484 7.4192481466370603 Li
atom 2.2661841382618424 1.3083819960910941 3.3689140166370604 Li
atom 2.2661841382618424 1.3083819960910941 6.0755011950000011 P
atom -0.0000000226618406 2.6167640314336484 2.0251670650000002 P
