#=======================================================
# FHI-aims file: /home/gz_fan/Documents/ML/train/battery/CCS/CCS/test/LiCl/aims_geo/geometry.in.10
# Created using the Atomic Simulation Environment (ASE)
# Thu Jul 21 15:40:07 2022
#=======================================================
lattice_vector 5.6680228000000001 0.0000000000000000 0.0000000000000000 
lattice_vector 0.0000000000000000 5.6680228000000001 0.0000000000000000 
lattice_vector 0.0000000000000000 0.0000000000000000 5.6680228000000001 
atom 0.0000000000000000 0.0000000000000000 0.0000000000000000 Li
atom 0.0000000000000000 2.8340114000000001 2.8340114000000001 Li
atom 2.8340114000000001 0.0000000000000000 2.8340114000000001 Li
atom 2.8340114000000001 2.8340114000000001 0.0000000000000000 Li
atom 2.8340114000000001 0.0000000000000000 0.0000000000000000 Cl
atom 2.8340114000000001 2.8340114000000001 2.8340114000000001 Cl
atom 0.0000000000000000 0.0000000000000000 2.8340114000000001 Cl
atom 0.0000000000000000 2.8340114000000001 0.0000000000000000 Cl
