#=======================================================
# FHI-aims file: /home/gz_fan/Documents/ML/train/battery/CCS/CCS/test/LiCl/aims_geo/geometry.in.0
# Created using the Atomic Simulation Environment (ASE)
# Thu Jul 21 15:40:07 2022
#=======================================================
lattice_vector 4.1221984000000003 0.0000000000000000 0.0000000000000000 
lattice_vector 0.0000000000000000 4.1221984000000003 0.0000000000000000 
lattice_vector 0.0000000000000000 0.0000000000000000 4.1221984000000003 
atom 0.0000000000000000 0.0000000000000000 0.0000000000000000 Li
atom 0.0000000000000000 2.0610992000000001 2.0610992000000001 Li
atom 2.0610992000000001 0.0000000000000000 2.0610992000000001 Li
atom 2.0610992000000001 2.0610992000000001 0.0000000000000000 Li
atom 2.0610992000000001 0.0000000000000000 0.0000000000000000 Cl
atom 2.0610992000000001 2.0610992000000001 2.0610992000000001 Cl
atom 0.0000000000000000 0.0000000000000000 2.0610992000000001 Cl
atom 0.0000000000000000 2.0610992000000001 0.0000000000000000 Cl
