#=======================================================
# FHI-aims file: /home/gz_fan/Documents/ML/train/battery/CCS/CCS/test/LiCl/aims_geo/geometry.in.2
# Created using the Atomic Simulation Environment (ASE)
# Thu Jul 21 15:40:07 2022
#=======================================================
lattice_vector 4.4313632800000002 0.0000000000000000 0.0000000000000000 
lattice_vector 0.0000000000000000 4.4313632800000002 0.0000000000000000 
lattice_vector 0.0000000000000000 0.0000000000000000 4.4313632800000002 
atom 0.0000000000000000 0.0000000000000000 0.0000000000000000 Li
atom 0.0000000000000000 2.2156816400000001 2.2156816400000001 Li
atom 2.2156816400000001 0.0000000000000000 2.2156816400000001 Li
atom 2.2156816400000001 2.2156816400000001 0.0000000000000000 Li
atom 2.2156816400000001 0.0000000000000000 0.0000000000000000 Cl
atom 2.2156816400000001 2.2156816400000001 2.2156816400000001 Cl
atom 0.0000000000000000 0.0000000000000000 2.2156816400000001 Cl
atom 0.0000000000000000 2.2156816400000001 0.0000000000000000 Cl
