#=======================================================
# FHI-aims file: /home/gz_fan/Documents/ML/train/battery/CCS/CCS/test/LiCl/aims_geo/geometry.in.5
# Created using the Atomic Simulation Environment (ASE)
# Thu Jul 21 15:40:07 2022
#=======================================================
lattice_vector 4.8951106000000006 0.0000000000000000 0.0000000000000000 
lattice_vector 0.0000000000000000 4.8951106000000006 0.0000000000000000 
lattice_vector 0.0000000000000000 0.0000000000000000 4.8951106000000006 
atom 0.0000000000000000 0.0000000000000000 0.0000000000000000 Li
atom 0.0000000000000000 2.4475553000000003 2.4475553000000003 Li
atom 2.4475553000000003 0.0000000000000000 2.4475553000000003 Li
atom 2.4475553000000003 2.4475553000000003 0.0000000000000000 Li
atom 2.4475553000000003 0.0000000000000000 0.0000000000000000 Cl
atom 2.4475553000000003 2.4475553000000003 2.4475553000000003 Cl
atom 0.0000000000000000 0.0000000000000000 2.4475553000000003 Cl
atom 0.0000000000000000 2.4475553000000003 0.0000000000000000 Cl
