#=======================================================
# FHI-aims file: /home/gz_fan/Documents/ML/train/battery/CCS/CCS/test/LiCl/aims_geo/geometry.in.7
# Created using the Atomic Simulation Environment (ASE)
# Thu Jul 21 15:40:07 2022
#=======================================================
lattice_vector 5.2042754799999997 0.0000000000000000 0.0000000000000000 
lattice_vector 0.0000000000000000 5.2042754799999997 0.0000000000000000 
lattice_vector 0.0000000000000000 0.0000000000000000 5.2042754799999997 
atom 0.0000000000000000 0.0000000000000000 0.0000000000000000 Li
atom 0.0000000000000000 2.6021377399999999 2.6021377399999999 Li
atom 2.6021377399999999 0.0000000000000000 2.6021377399999999 Li
atom 2.6021377399999999 2.6021377399999999 0.0000000000000000 Li
atom 2.6021377399999999 0.0000000000000000 0.0000000000000000 Cl
atom 2.6021377399999999 2.6021377399999999 2.6021377399999999 Cl
atom 0.0000000000000000 0.0000000000000000 2.6021377399999999 Cl
atom 0.0000000000000000 2.6021377399999999 0.0000000000000000 Cl
