#=======================================================
# FHI-aims file: /home/gz_fan/Documents/ML/train/battery/CCS/CCS/test/LiS/aims_geo/geometry.in.5
# Created using the Atomic Simulation Environment (ASE)
# Thu Jul 21 15:36:44 2022
#=======================================================
lattice_vector 5.4352939000000005 0.0000000000000000 0.0000000000000000 
lattice_vector 0.0000000000000000 5.4352939000000005 0.0000000000000000 
lattice_vector 0.0000000000000000 0.0000000000000000 5.4352939000000005 
atom 1.3588234750000001 4.0764704250000001 4.0764704250000001 Li
atom 1.3588234750000001 1.3588234750000001 4.0764704250000001 Li
atom 1.3588234750000001 1.3588234750000001 1.3588234750000001 Li
atom 1.3588234750000001 4.0764704250000001 1.3588234750000001 Li
atom 4.0764704250000001 4.0764704250000001 1.3588234750000001 Li
atom 4.0764704250000001 1.3588234750000001 1.3588234750000001 Li
atom 4.0764704250000001 1.3588234750000001 4.0764704250000001 Li
atom 4.0764704250000001 4.0764704250000001 4.0764704250000001 Li
atom 0.0000000000000000 0.0000000000000000 0.0000000000000000 S
atom 0.0000000000000000 2.7176469500000002 2.7176469500000002 S
atom 2.7176469500000002 0.0000000000000000 2.7176469500000002 S
atom 2.7176469500000002 2.7176469500000002 0.0000000000000000 S
