#=======================================================
# FHI-aims file: /home/gz_fan/Documents/ML/train/battery/CCS/CCS/test/LiS/aims_geo/geometry.in.6
# Created using the Atomic Simulation Environment (ASE)
# Thu Jul 21 15:36:44 2022
#=======================================================
lattice_vector 5.6069347600000006 0.0000000000000000 0.0000000000000000 
lattice_vector 0.0000000000000000 5.6069347600000006 0.0000000000000000 
lattice_vector 0.0000000000000000 0.0000000000000000 5.6069347600000006 
atom 1.4017336900000001 4.2052010700000011 4.2052010700000011 Li
atom 1.4017336900000001 1.4017336900000001 4.2052010700000011 Li
atom 1.4017336900000001 1.4017336900000001 1.4017336900000001 Li
atom 1.4017336900000001 4.2052010700000011 1.4017336900000001 Li
atom 4.2052010700000011 4.2052010700000011 1.4017336900000001 Li
atom 4.2052010700000011 1.4017336900000001 1.4017336900000001 Li
atom 4.2052010700000011 1.4017336900000001 4.2052010700000011 Li
atom 4.2052010700000011 4.2052010700000011 4.2052010700000011 Li
atom 0.0000000000000000 0.0000000000000000 0.0000000000000000 S
atom 0.0000000000000000 2.8034673800000003 2.8034673800000003 S
atom 2.8034673800000003 0.0000000000000000 2.8034673800000003 S
atom 2.8034673800000003 2.8034673800000003 0.0000000000000000 S
