#=======================================================
# FHI-aims file: /home/gz_fan/Documents/ML/train/battery/CCS/CCS/test/LiS/aims_geo/geometry.in.8
# Created using the Atomic Simulation Environment (ASE)
# Thu Jul 21 15:36:44 2022
#=======================================================
lattice_vector 5.9502164799999999 0.0000000000000000 0.0000000000000000 
lattice_vector 0.0000000000000000 5.9502164799999999 0.0000000000000000 
lattice_vector 0.0000000000000000 0.0000000000000000 5.9502164799999999 
atom 1.4875541200000000 4.4626623600000004 4.4626623600000004 Li
atom 1.4875541200000000 1.4875541200000000 4.4626623600000004 Li
atom 1.4875541200000000 1.4875541200000000 1.4875541200000000 Li
atom 1.4875541200000000 4.4626623600000004 1.4875541200000000 Li
atom 4.4626623600000004 4.4626623600000004 1.4875541200000000 Li
atom 4.4626623600000004 1.4875541200000000 1.4875541200000000 Li
atom 4.4626623600000004 1.4875541200000000 4.4626623600000004 Li
atom 4.4626623600000004 4.4626623600000004 4.4626623600000004 Li
atom 0.0000000000000000 0.0000000000000000 0.0000000000000000 S
atom 0.0000000000000000 2.9751082400000000 2.9751082400000000 S
atom 2.9751082400000000 0.0000000000000000 2.9751082400000000 S
atom 2.9751082400000000 2.9751082400000000 0.0000000000000000 S
