#=======================================================
# FHI-aims file: /home/gz_fan/Documents/ML/train/battery/CCS/CCS/test/LiS/aims_geo/geometry.in.10
# Created using the Atomic Simulation Environment (ASE)
# Thu Jul 21 15:36:44 2022
#=======================================================
lattice_vector 6.2934982000000002 0.0000000000000000 0.0000000000000000 
lattice_vector 0.0000000000000000 6.2934982000000002 0.0000000000000000 
lattice_vector 0.0000000000000000 0.0000000000000000 6.2934982000000002 
atom 1.5733745500000000 4.7201236500000006 4.7201236500000006 Li
atom 1.5733745500000000 1.5733745500000000 4.7201236500000006 Li
atom 1.5733745500000000 1.5733745500000000 1.5733745500000000 Li
atom 1.5733745500000000 4.7201236500000006 1.5733745500000000 Li
atom 4.7201236500000006 4.7201236500000006 1.5733745500000000 Li
atom 4.7201236500000006 1.5733745500000000 1.5733745500000000 Li
atom 4.7201236500000006 1.5733745500000000 4.7201236500000006 Li
atom 4.7201236500000006 4.7201236500000006 4.7201236500000006 Li
atom 0.0000000000000000 0.0000000000000000 0.0000000000000000 S
atom 0.0000000000000000 3.1467491000000001 3.1467491000000001 S
atom 3.1467491000000001 0.0000000000000000 3.1467491000000001 S
atom 3.1467491000000001 3.1467491000000001 0.0000000000000000 S
