#=======================================================
# FHI-aims file: /home/gz_fan/Documents/ML/train/battery/CCS/CCS/test/LiS/aims_geo/geometry.in.1
# Created using the Atomic Simulation Environment (ASE)
# Thu Jul 21 15:36:44 2022
#=======================================================
lattice_vector 4.7487304600000009 0.0000000000000000 0.0000000000000000 
lattice_vector 0.0000000000000000 4.7487304600000009 0.0000000000000000 
lattice_vector 0.0000000000000000 0.0000000000000000 4.7487304600000009 
atom 1.1871826150000002 3.5615478450000007 3.5615478450000007 Li
atom 1.1871826150000002 1.1871826150000002 3.5615478450000007 Li
atom 1.1871826150000002 1.1871826150000002 1.1871826150000002 Li
atom 1.1871826150000002 3.5615478450000007 1.1871826150000002 Li
atom 3.5615478450000007 3.5615478450000007 1.1871826150000002 Li
atom 3.5615478450000007 1.1871826150000002 1.1871826150000002 Li
atom 3.5615478450000007 1.1871826150000002 3.5615478450000007 Li
atom 3.5615478450000007 3.5615478450000007 3.5615478450000007 Li
atom 0.0000000000000000 0.0000000000000000 0.0000000000000000 S
atom 0.0000000000000000 2.3743652300000004 2.3743652300000004 S
atom 2.3743652300000004 0.0000000000000000 2.3743652300000004 S
atom 2.3743652300000004 2.3743652300000004 0.0000000000000000 S
