#=======================================================
# FHI-aims file: /home/gz_fan/Documents/ML/train/battery/CCS/CCS/test/LiS/aims_geo/geometry.in.7
# Created using the Atomic Simulation Environment (ASE)
# Thu Jul 21 15:36:44 2022
#=======================================================
lattice_vector 5.7785756199999998 0.0000000000000000 0.0000000000000000 
lattice_vector 0.0000000000000000 5.7785756199999998 0.0000000000000000 
lattice_vector 0.0000000000000000 0.0000000000000000 5.7785756199999998 
atom 1.4446439050000000 4.3339317150000003 4.3339317150000003 Li
atom 1.4446439050000000 1.4446439050000000 4.3339317150000003 Li
atom 1.4446439050000000 1.4446439050000000 1.4446439050000000 Li
atom 1.4446439050000000 4.3339317150000003 1.4446439050000000 Li
atom 4.3339317150000003 4.3339317150000003 1.4446439050000000 Li
atom 4.3339317150000003 1.4446439050000000 1.4446439050000000 Li
atom 4.3339317150000003 1.4446439050000000 4.3339317150000003 Li
atom 4.3339317150000003 4.3339317150000003 4.3339317150000003 Li
atom 0.0000000000000000 0.0000000000000000 0.0000000000000000 S
atom 0.0000000000000000 2.8892878099999999 2.8892878099999999 S
atom 2.8892878099999999 0.0000000000000000 2.8892878099999999 S
atom 2.8892878099999999 2.8892878099999999 0.0000000000000000 S
