#=======================================================
# FHI-aims file: /home/gz_fan/Documents/ML/train/battery/CCS/CCS/test/LiS/aims_geo/geometry.in.0
# Created using the Atomic Simulation Environment (ASE)
# Thu Jul 21 15:36:44 2022
#=======================================================
lattice_vector 4.5770895999999999 0.0000000000000000 0.0000000000000000 
lattice_vector 0.0000000000000000 4.5770895999999999 0.0000000000000000 
lattice_vector 0.0000000000000000 0.0000000000000000 4.5770895999999999 
atom 1.1442724000000000 3.4328172000000006 3.4328172000000006 Li
atom 1.1442724000000000 1.1442724000000000 3.4328172000000006 Li
atom 1.1442724000000000 1.1442724000000000 1.1442724000000000 Li
atom 1.1442724000000000 3.4328172000000006 1.1442724000000000 Li
atom 3.4328172000000006 3.4328172000000006 1.1442724000000000 Li
atom 3.4328172000000006 1.1442724000000000 1.1442724000000000 Li
atom 3.4328172000000006 1.1442724000000000 3.4328172000000006 Li
atom 3.4328172000000006 3.4328172000000006 3.4328172000000006 Li
atom 0.0000000000000000 0.0000000000000000 0.0000000000000000 S
atom 0.0000000000000000 2.2885447999999999 2.2885447999999999 S
atom 2.2885447999999999 0.0000000000000000 2.2885447999999999 S
atom 2.2885447999999999 2.2885447999999999 0.0000000000000000 S
