#=======================================================
# FHI-aims file: /home/gz_fan/Documents/ML/train/battery/CCS/CCS/test/LiS/aims_geo/geometry.in.4
# Created using the Atomic Simulation Environment (ASE)
# Thu Jul 21 15:36:44 2022
#=======================================================
lattice_vector 5.2636530400000003 0.0000000000000000 0.0000000000000000 
lattice_vector 0.0000000000000000 5.2636530400000003 0.0000000000000000 
lattice_vector 0.0000000000000000 0.0000000000000000 5.2636530400000003 
atom 1.3159132600000001 3.9477397800000005 3.9477397800000005 Li
atom 1.3159132600000001 1.3159132600000001 3.9477397800000005 Li
atom 1.3159132600000001 1.3159132600000001 1.3159132600000001 Li
atom 1.3159132600000001 3.9477397800000005 1.3159132600000001 Li
atom 3.9477397800000005 3.9477397800000005 1.3159132600000001 Li
atom 3.9477397800000005 1.3159132600000001 1.3159132600000001 Li
atom 3.9477397800000005 1.3159132600000001 3.9477397800000005 Li
atom 3.9477397800000005 3.9477397800000005 3.9477397800000005 Li
atom 0.0000000000000000 0.0000000000000000 0.0000000000000000 S
atom 0.0000000000000000 2.6318265200000002 2.6318265200000002 S
atom 2.6318265200000002 0.0000000000000000 2.6318265200000002 S
atom 2.6318265200000002 2.6318265200000002 0.0000000000000000 S
