#=======================================================
# FHI-aims file: /home/gz_fan/Documents/ML/train/battery/CCS/CCS/test/LiS/aims_geo/geometry.in.3
# Created using the Atomic Simulation Environment (ASE)
# Thu Jul 21 15:36:44 2022
#=======================================================
lattice_vector 5.0920121800000011 0.0000000000000000 0.0000000000000000 
lattice_vector 0.0000000000000000 5.0920121800000011 0.0000000000000000 
lattice_vector 0.0000000000000000 0.0000000000000000 5.0920121800000011 
atom 1.2730030450000003 3.8190091350000008 3.8190091350000008 Li
atom 1.2730030450000003 1.2730030450000003 3.8190091350000008 Li
atom 1.2730030450000003 1.2730030450000003 1.2730030450000003 Li
atom 1.2730030450000003 3.8190091350000008 1.2730030450000003 Li
atom 3.8190091350000008 3.8190091350000008 1.2730030450000003 Li
atom 3.8190091350000008 1.2730030450000003 1.2730030450000003 Li
atom 3.8190091350000008 1.2730030450000003 3.8190091350000008 Li
atom 3.8190091350000008 3.8190091350000008 3.8190091350000008 Li
atom 0.0000000000000000 0.0000000000000000 0.0000000000000000 S
atom 0.0000000000000000 2.5460060900000006 2.5460060900000006 S
atom 2.5460060900000006 0.0000000000000000 2.5460060900000006 S
atom 2.5460060900000006 2.5460060900000006 0.0000000000000000 S
