#=======================================================
# FHI-aims file: /home/gz_fan/Documents/ML/train/battery/CCS/CCS/test/LiS/aims_geo/geometry.in.9
# Created using the Atomic Simulation Environment (ASE)
# Thu Jul 21 15:36:44 2022
#=======================================================
lattice_vector 6.1218573400000000 0.0000000000000000 0.0000000000000000 
lattice_vector 0.0000000000000000 6.1218573400000000 0.0000000000000000 
lattice_vector 0.0000000000000000 0.0000000000000000 6.1218573400000000 
atom 1.5304643350000000 4.5913930050000005 4.5913930050000005 Li
atom 1.5304643350000000 1.5304643350000000 4.5913930050000005 Li
atom 1.5304643350000000 1.5304643350000000 1.5304643350000000 Li
atom 1.5304643350000000 4.5913930050000005 1.5304643350000000 Li
atom 4.5913930050000005 4.5913930050000005 1.5304643350000000 Li
atom 4.5913930050000005 1.5304643350000000 1.5304643350000000 Li
atom 4.5913930050000005 1.5304643350000000 4.5913930050000005 Li
atom 4.5913930050000005 4.5913930050000005 4.5913930050000005 Li
atom 0.0000000000000000 0.0000000000000000 0.0000000000000000 S
atom 0.0000000000000000 3.0609286700000000 3.0609286700000000 S
atom 3.0609286700000000 0.0000000000000000 3.0609286700000000 S
atom 3.0609286700000000 3.0609286700000000 0.0000000000000000 S
