#=======================================================
# FHI-aims file: /home/gz_fan/Documents/ML/train/battery/CCS/CCS/test/LiS/aims_geo/geometry.in.2
# Created using the Atomic Simulation Environment (ASE)
# Thu Jul 21 15:36:44 2022
#=======================================================
lattice_vector 4.9203713200000010 0.0000000000000000 0.0000000000000000 
lattice_vector 0.0000000000000000 4.9203713200000010 0.0000000000000000 
lattice_vector 0.0000000000000000 0.0000000000000000 4.9203713200000010 
atom 1.2300928300000002 3.6902784900000007 3.6902784900000007 Li
atom 1.2300928300000002 1.2300928300000002 3.6902784900000007 Li
atom 1.2300928300000002 1.2300928300000002 1.2300928300000002 Li
atom 1.2300928300000002 3.6902784900000007 1.2300928300000002 Li
atom 3.6902784900000007 3.6902784900000007 1.2300928300000002 Li
atom 3.6902784900000007 1.2300928300000002 1.2300928300000002 Li
atom 3.6902784900000007 1.2300928300000002 3.6902784900000007 Li
atom 3.6902784900000007 3.6902784900000007 3.6902784900000007 Li
atom 0.0000000000000000 0.0000000000000000 0.0000000000000000 S
atom 0.0000000000000000 2.4601856600000005 2.4601856600000005 S
atom 2.4601856600000005 0.0000000000000000 2.4601856600000005 S
atom 2.4601856600000005 2.4601856600000005 0.0000000000000000 S
