  #=======================================================
  # FHI-aims file: ./data/test_rep/geometry.in.0
  # Created using the Atomic Simulation Environment (ASE)
  # Mon Jul  4 10:21:46 2022
  #=======================================================
  lattice_vector 18.8104323387299992 0.0000000000000000 0.0000000000000000
  lattice_vector 0.0000000000000000 15.6154021262949989 0.0000000000000000
  lattice_vector 0.0000000000000000 0.0000000000000000 7.2192153215649997
  atom 2.5962479908999998 2.3110686080999998 4.4741265027499999 Li
  atom 1.6793835206499999 7.8358553352999989 4.0609747137499994 Li
  atom 8.6112404760499999 3.5318365383999999 2.7206786146999997 Li
  atom 6.5697563091499998 1.3405892595499997 6.0842580083000000 Li
  atom 7.7319305156500002 0.8907008261500000 2.9485506411499998 Li
  atom 6.4238453160999995 5.7080698823499993 3.3235743027000000 Li
  atom 12.0353991922499990 2.3050226855499996 2.4881978741499999 Li
  atom 11.4756073944499981 8.1306296022000009 4.2045086120499997 Li
  atom 18.4620284197000011 4.4213594424500000 4.0857564802499997 Li
  atom 13.3792486437499996 2.7931042900500000 6.0524210639499998 Li
  atom 17.1164063679499989 0.9966350668000000 4.4030041409499994 Li
  atom 15.2604022026999999 6.9486365042499996 5.1307464966999996 Li
  atom 3.3106181342999998 10.6112276653999995 4.4169780937500001 Li
  atom 1.3029914980999999 15.5547860689999986 4.1253013673999996 Li
  atom 8.7554097020500006 11.8594618095000008 3.8815435710999995 Li
  atom 6.3127976985499998 8.4056682347000002 4.5405500020999998 Li
  atom 7.9524033901499998 8.7445526298999994 2.1294265969499997 Li
  atom 6.2745444066999996 13.8292956464000003 4.4074263215999991 Li
  atom 11.9521755641999992 10.5829188890000001 2.5053730343499998 Li
  atom 10.8880762568999980 15.5223317300999994 3.3123475921999996 Li
  atom 0.1584440666000000 12.2494276533999997 4.2383417134999997 Li
  atom 15.5344813722499993 9.9227831683000005 6.0269241402999993 Li
  atom 17.5489387136499992 8.4327958893999995 3.1065399959500000 Li
  atom 15.8089036257499984 14.3444465005499993 5.0081840697499995 Li
  atom 8.7203966473999994 6.8534272439499997 4.2937383756999994 P
  atom 4.4815886302000001 0.6165739210000000 3.2372055951499998 P
  atom 18.2965308130500013 7.6016636181499990 6.0733856496999996 P
  atom 14.2197077176499995 1.0988783579499999 2.7932235444999995 P
  atom 8.8440032649500004 14.9392723888499983 5.0458124059999996 P
  atom 4.2341943231999997 8.1206286880999983 2.6229160270500000 P
  atom 18.3052076950499973 15.2675313361500002 6.1942892750000000 P
  atom 14.1116138733499987 8.5175928437999993 3.1520959415999998 P
  atom 1.1473153676500001 0.7011615153499999 6.4240830155999999 S
  atom 2.7815427150000001 0.3961229905499999 2.3952402164500000 S
  atom 5.2273257225499998 2.4869406621999999 2.1960760034500000 S
  atom 8.5907070173999998 5.8857631823999998 2.5145188192500001 S
  atom 7.4516758368999998 14.7304808530500004 6.3320193041000001 S
  atom 5.9297899586499998 7.3395186715999996 2.1435027460000002 S
  atom 10.3519135203000001 6.1819019295499995 5.2421844103500002 S
  atom 4.3587522697999992 1.1789396544999999 5.1393692543500000 S
  atom 0.3559848740000000 2.5208737311999996 2.1653438501999998 S
  atom 1.2111209795500000 4.3645147864500000 2.2689094482500001 S
  atom 6.8497458276999996 2.0967784314499998 1.2581283978999998 S
  atom 7.3250470536999996 2.8939359818999995 4.5429743052000005 S
  atom 10.6390982694999980 4.4364962370500001 4.2172867637499998 S
  atom 5.7587794639999990 3.6797302327499999 3.9408951099000000 S
  atom 2.9590308796500002 4.3009561621999994 3.2105877436999997 S
  atom 2.8423481660999999 5.5011724232999999 4.9168359447999999 S
  atom 0.3710322128000000 2.1049983539500001 4.0368125771500001 S
  atom 2.1495951092999999 4.4446444925000002 6.3237524040999995 S
  atom 9.4262732226999990 1.1492659323499999 4.8670202570999992 S
  atom 13.3634970576000001 0.9913904037000001 1.0857185475500000 S
  atom 15.1509640523499982 3.0204722103999999 2.8530180759000001 S
  atom 18.1925562171999999 6.6704584494999990 4.2361312686999995 S
  atom 16.6842720446999984 0.5135844010500000 6.6459592585999996 S
  atom 15.3700814088999973 7.1949470578999994 2.7774563222999995 S
  atom 18.3987653233500019 6.1273622765999995 0.1719713892500000 S
  atom 12.8396281598499993 1.2153119872000000 4.2204300961999994 S
  atom 9.7794668608500004 1.6108439513999999 0.3522346891500000 S
  atom 9.6173182454999999 3.4762714316999999 0.1063533616500000 S
  atom 16.3838056884499963 3.1910766816999998 4.3223037594500004 S
  atom 15.4855526786500004 3.8303007658499997 6.1528674253499993 S
  atom 0.1496648401500000 4.4986624596000002 6.3756451442500000 S
  atom 14.1509194013499986 5.0127047900999999 5.7727475210999994 S
  atom 11.5451637259000002 4.1581129518999997 7.2128279664499999 S
  atom 11.9515846974499986 5.4957345130999995 1.5214296103500000 S
  atom 9.8790811523999995 1.5962985318000000 2.3161022495999997 S
  atom 12.3255988186999996 4.6879096311499993 3.1727943876999998 S
  atom 1.0286212399999999 8.7889941039499995 6.2862071158999999 S
  atom 2.6503232230500000 7.3270256728499996 1.7999064923499999 S
  atom 4.4636423169999997 10.0200605557999989 1.9622763969000001 S
  atom 8.5057550771499990 13.9086607411499994 3.3122049487499998 S
  atom 7.1840339746999993 6.6275950622499993 5.4307305721499999 S
  atom 5.8107628379499996 15.0301387678499996 2.6512987485999999 S
  atom 10.6817909094499992 14.4454692288499995 5.6910290521500002 S
  atom 4.0444361447499997 8.4754596303499987 4.5726588963000001 S
  atom 1.2203947550999998 10.5575140536000003 1.9322479969999997 S
  atom 1.5619197579499999 12.5152416177500001 2.3110572118999997 S
  atom 6.3352495102499997 10.6391939249999989 2.2061301488999998 S
  atom 6.6669051055999997 10.7767030030999997 4.2278953500999998 S
  atom 10.5719693124999985 12.4662794879500005 5.3087374298499990 S
  atom 5.3561598842000002 11.8757136447500002 5.1579056638499994 S
  atom 3.2701810470499995 12.7083258088999997 3.3873932031999998 S
  atom 2.8816464056999997 13.8670422319999993 5.0590113896500002 S
  atom 0.8529735075000000 9.9767099211499986 3.7408952559999999 S
  atom 2.4346125997499999 12.8041260955500000 6.5513847540999999 S
  atom 9.2436090884999995 8.7508947633999998 4.2769158459999996 S
  atom 12.4633335407999990 8.4109949198500011 2.1506721689499999 S
  atom 14.8260804398499992 10.2922799464499981 2.4463140984000002 S
  atom 18.1249059068499996 14.3296931743999991 4.3524935206500004 S
  atom 16.6281284982000024 8.2315769394500009 6.8177891738499996 S
  atom 15.5297891958999976 15.4443962684999985 2.9687206801499997 S
  atom 18.3040842640000001 13.8089457173000003 0.2810845189500000 S
  atom 13.6294330304499987 8.7281835200000000 5.0589502875500001 S
  atom 9.9385165096999994 11.6860462387999995 0.7929623628000000 S
  atom 11.0129621510999982 13.3193942243499990 1.3985120790999999 S
  atom 16.7162180870500023 10.5147395531000001 2.6534110850000001 S
  atom 16.9531645933000021 11.1235797520999995 4.7456045751499998 S
  atom 0.4629047282500000 12.3713466605499995 6.5427159546999993 S
  atom 15.4414877028999982 12.0735437319000010 5.4359462232000002 S
  atom 12.8545119456999988 12.7080158685499995 1.6559382075000000 S
  atom 13.1805851405999999 13.3471743343000000 3.5631487331499998 S
  atom 9.6946242370999993 10.5099573575999994 2.2456614814500000 S
  atom 12.4557554230999994 12.0259982040999986 4.7085063674000001 S



